NAME: random-69-17998
TYPE: TSP
COMMENT: size=69 seed=17998
DIMENSION: 140
EDGE_WEIGHT_TYPE: EUC_2D
NODE_COORD_SECTION
+0 386 53
-0 386 53
+1 704 276
-1 550 198
+2 579 748
-2 526 514
+3 131 482
-3 612 143
+4 233 256
-4 20 435
+5 483 742
-5 382 671
+6 717 633
-6 17 901
+7 279 190
-7 5 802
+8 195 928
-8 924 905
+9 300 91
-9 950 333
+10 504 755
-10 332 302
+11 308 234
-11 448 284
+12 136 748
-12 633 788
+13 71 403
-13 162 608
+14 620 676
-14 79 964
+15 749 908
-15 978 525
+16 619 464
-16 916 633
+17 665 565
-17 287 327
+18 788 412
-18 772 99
+19 929 981
-19 15 948
+20 117 180
-20 347 668
+21 944 100
-21 40 607
+22 862 580
-22 165 843
+23 891 897
-23 710 293
+24 416 511
-24 115 740
+25 508 819
-25 915 121
+26 124 948
-26 319 888
+27 919 955
-27 264 389
+28 803 593
-28 568 119
+29 591 839
-29 703 667
+30 341 412
-30 521 952
+31 709 639
-31 414 841
+32 3 471
-32 408 725
+33 701 782
-33 345 592
+34 492 791
-34 162 152
+35 680 173
-35 701 984
+36 809 88
-36 576 593
+37 891 564
-37 959 645
+38 414 397
-38 77 279
+39 262 993
-39 554 657
+40 134 610
-40 492 734
+41 554 296
-41 188 580
+42 624 484
-42 981 679
+43 548 931
-43 799 795
+44 462 825
-44 289 588
+45 600 986
-45 783 26
+46 490 752
-46 551 604
+47 607 189
-47 505 482
+48 695 212
-48 609 539
+49 982 942
-49 813 922
+50 712 624
-50 762 689
+51 929 441
-51 234 8
+52 595 409
-52 681 834
+53 757 529
-53 361 218
+54 467 994
-54 675 829
+55 268 408
-55 324 517
+56 986 169
-56 900 413
+57 511 839
-57 408 234
+58 329 297
-58 555 940
+59 473 501
-59 360 948
+60 985 732
-60 432 842
+61 990 514
-61 294 476
+62 993 167
-62 842 19
+63 438 776
-63 330 156
+64 493 82
-64 920 681
+65 89 445
-65 435 903
+66 892 397
-66 236 59
+67 200 204
-67 374 659
+68 248 773
-68 193 342
+69 350 716
-69 759 234
PRECEDENCE_SECTION
+0 -0
+1 -1
+2 -2
+3 -3
+4 -4
+5 -5
+6 -6
+7 -7
+8 -8
+9 -9
+10 -10
+11 -11
+12 -12
+13 -13
+14 -14
+15 -15
+16 -16
+17 -17
+18 -18
+19 -19
+20 -20
+21 -21
+22 -22
+23 -23
+24 -24
+25 -25
+26 -26
+27 -27
+28 -28
+29 -29
+30 -30
+31 -31
+32 -32
+33 -33
+34 -34
+35 -35
+36 -36
+37 -37
+38 -38
+39 -39
+40 -40
+41 -41
+42 -42
+43 -43
+44 -44
+45 -45
+46 -46
+47 -47
+48 -48
+49 -49
+50 -50
+51 -51
+52 -52
+53 -53
+54 -54
+55 -55
+56 -56
+57 -57
+58 -58
+59 -59
+60 -60
+61 -61
+62 -62
+63 -63
+64 -64
+65 -65
+66 -66
+67 -67
+68 -68
+69 -69
EOF
